
Log started (V11.0.0) Fri May 16 12:54:51 2008

Tried aggregator 1 time.
Reduced MIP has 250 rows, 10001 columns, and 20050 nonzeros.
Presolve time =    0.08 sec.
Clique table members: 200.
MIP emphasis: balance optimality and feasibility.
MIP search method: dynamic search.
Parallel mode: none, using 1 thread.
Root relaxation solution time =    0.44 sec.

        Nodes                                         Cuts/
   Node  Left     Objective  IInf  Best Integer     Best Node    ItCnt     Gap

*     0+    0                        17276.0000      130.2850      724   99.25%
*     0+    0                          191.0000      130.2850      724   31.79%
      0     0      131.0000    91      191.0000      Fract: 5      739   31.41%
*     0+    0                          189.0000      131.0000      739   30.69%
      0     0      131.4995    97      189.0000       Cuts: 7      891   30.42%
*     0+    0                          182.0000      131.4995      891   27.75%
      0     0      138.1018    86      182.0000      Cuts: 34     1501   24.12%
*     0+    0                          170.0000      138.1018     1501   18.76%
      0     0      138.1029    98      170.0000      Cuts: 12     1543   18.76%
*     0+    0                          169.0000      138.1029     1543   18.28%
      0     0      138.1031   107      169.0000      Cuts: 14     1624   18.28%
*     0+    0                          168.0000      138.1031     1624   17.80%
*     0+    0                          167.0000      138.1031     1624   17.30%
*     0+    0                          166.0000      138.1031     1624   16.81%
*     0+    0                          165.0000      138.1031     1624   16.30%
*     0+    0                          164.0000      138.1031     1624   15.79%
*     0+    0                          155.0000      138.1031     1624   10.90%
      0     2      138.1031   107      155.0000      138.1031     1624   10.90%
*    20+   19                          154.0000      138.1058     1784   10.32%
*    30+   29                          152.0000      138.1058     1885    9.14%
*    40+   39                          151.0000      138.1058     1906    8.54%
    100   101      139.0000    71      151.0000      138.1058     2112    8.54%
*   200+  179                          150.0000      138.1058     8180    7.93%
    200   181      139.0000    70      150.0000      138.1058     8180    7.93%
    300   242      139.1051    85      150.0000      138.1058    18346    7.93%
    400   298      139.0000    71      150.0000      138.1058    27754    7.93%
    500   355      139.0000    70      150.0000      138.1058    37670    7.93%
*   506+  238                          149.0000      145.9544    39734    2.04%
*   506+  158                          148.0000      145.9544    39734    1.38%
    600   176      147.0000    28      148.0000      145.9938    41854    1.36%
    700   179      147.0000    22      148.0000      145.9938    46743    1.36%
    800   190    infeasible            148.0000      145.9938    54526    1.36%
    900   172    infeasible            148.0000      147.0000    76321    0.68%
   1000    72    infeasible            148.0000      147.0000   146648    0.68%
Elapsed time =  99.17 sec. (tree size =  0.53 MB, solutions = 18)

Cover cuts applied:  59
Mixed integer rounding cuts applied:  9
Zero-half cuts applied:  3
Gomory fractional cuts applied:  4

Solution pool: 18 solutions saved.

MIP - Integer optimal solution:  Objective = 1.4800000000e+002
Solution time =  109.50 sec.  Iterations = 183667  Nodes = 1073


Incumbent solution
Variable Name           Solution Value
Cmax                        148.000000
X_1_46                        1.000000
X_2_49                        1.000000
X_3_3                         1.000000
X_4_14                        1.000000
X_5_5                         1.000000
X_6_31                        1.000000
X_7_31                        1.000000
X_8_42                        1.000000
X_9_39                        1.000000
X_10_26                       1.000000
X_11_9                        1.000000
X_12_31                       1.000000
X_13_2                        1.000000
X_14_31                       1.000000
X_15_31                       1.000000
X_16_12                       1.000000
X_17_22                       1.000000
X_18_41                       1.000000
X_19_41                       1.000000
X_20_20                       1.000000
X_21_40                       1.000000
X_22_28                       1.000000
X_23_22                       1.000000
X_24_37                       1.000000
X_25_50                       1.000000
X_26_14                       1.000000
X_27_41                       1.000000
X_28_47                       1.000000
X_29_33                       1.000000
X_30_32                       1.000000
X_31_7                        1.000000
X_32_41                       1.000000
X_33_36                       1.000000
X_34_22                       1.000000
X_35_49                       1.000000
X_36_21                       1.000000
X_37_14                       1.000000
X_38_49                       1.000000
X_39_49                       1.000000
X_40_44                       1.000000
X_41_35                       1.000000
X_42_22                       1.000000
X_43_14                       1.000000
X_44_30                       1.000000
X_45_47                       1.000000
X_46_7                        1.000000
X_47_49                       1.000000
X_48_31                       1.000000
X_49_40                       1.000000
X_50_31                       1.000000
X_51_3                        1.000000
X_52_27                       1.000000
X_53_20                       1.000000
X_54_28                       1.000000
X_55_36                       1.000000
X_56_3                        1.000000
X_57_12                       1.000000
X_58_19                       1.000000
X_59_14                       1.000000
X_60_3                        1.000000
X_61_49                       1.000000
X_62_25                       1.000000
X_63_31                       1.000000
X_64_22                       1.000000
X_65_31                       1.000000
X_66_36                       1.000000
X_67_31                       1.000000
X_68_37                       1.000000
X_69_22                       1.000000
X_70_36                       1.000000
X_71_19                       1.000000
X_72_14                       1.000000
X_73_10                       1.000000
X_74_14                       1.000000
X_75_24                       1.000000
X_76_14                       1.000000
X_77_49                       1.000000
X_78_22                       1.000000
X_79_23                       1.000000
X_80_14                       1.000000
X_81_49                       1.000000
X_82_10                       1.000000
X_83_5                        1.000000
X_84_22                       1.000000
X_85_40                       1.000000
X_86_31                       1.000000
X_87_22                       1.000000
X_88_41                       1.000000
X_89_5                        1.000000
X_90_8                        1.000000
X_91_31                       1.000000
X_92_49                       1.000000
X_93_35                       1.000000
X_94_16                       1.000000
X_95_49                       1.000000
X_96_43                       1.000000
X_97_14                       1.000000
X_98_33                       1.000000
X_99_36                       1.000000
X_100_31                      1.000000
X_101_49                      1.000000
X_102_35                      1.000000
X_103_22                      1.000000
X_104_31                      1.000000
X_105_35                      1.000000
X_106_9                       1.000000
X_107_46                      1.000000
X_108_25                      1.000000
X_109_29                      1.000000
X_110_22                      1.000000
X_111_2                       1.000000
X_112_22                      1.000000
X_113_20                      1.000000
X_114_7                       1.000000
X_115_23                      1.000000
X_116_22                      1.000000
X_117_49                      1.000000
X_118_19                      1.000000
X_119_20                      1.000000
X_120_22                      1.000000
X_121_13                      1.000000
X_122_44                      1.000000
X_123_49                      1.000000
X_124_14                      1.000000
X_125_49                      1.000000
X_126_30                      1.000000
X_127_46                      1.000000
X_128_22                      1.000000
X_129_39                      1.000000
X_130_37                      1.000000
X_131_49                      1.000000
X_132_49                      1.000000
X_133_30                      1.000000
X_134_14                      1.000000
X_135_14                      1.000000
X_136_18                      1.000000
X_137_14                      1.000000
X_138_13                      1.000000
X_139_1                       1.000000
X_140_49                      1.000000
X_141_41                      1.000000
X_142_15                      1.000000
X_143_47                      1.000000
X_144_3                       1.000000
X_145_22                      1.000000
X_146_14                      1.000000
X_147_7                       1.000000
X_148_44                      1.000000
X_149_31                      1.000000
X_150_49                      1.000000
X_151_45                      1.000000
X_152_31                      1.000000
X_153_35                      1.000000
X_154_41                      1.000000
X_155_48                      1.000000
X_156_8                       1.000000
X_157_14                      1.000000
X_158_41                      1.000000
X_159_31                      1.000000
X_160_22                      1.000000
X_161_17                      1.000000
X_162_44                      1.000000
X_163_22                      1.000000
X_164_49                      1.000000
X_165_37                      1.000000
X_166_19                      1.000000
X_167_20                      1.000000
X_168_31                      1.000000
X_169_38                      1.000000
X_170_22                      1.000000
X_171_45                      1.000000
X_172_36                      1.000000
X_173_41                      1.000000
X_174_23                      1.000000
X_175_43                      1.000000
X_176_19                      1.000000
X_177_19                      1.000000
X_178_4                       1.000000
X_179_22                      1.000000
X_180_49                      1.000000
X_181_10                      1.000000
X_182_34                      1.000000
X_183_31                      1.000000
X_184_31                      1.000000
X_185_34                      1.000000
X_186_3                       1.000000
X_187_31                      1.000000
X_188_12                      1.000000
X_189_13                      1.000000
X_190_14                      1.000000
X_191_10                      1.000000
X_192_31                      1.000000
X_193_31                      1.000000
X_194_30                      1.000000
X_195_6                       1.000000
X_196_11                      1.000000
X_197_31                      1.000000
X_198_36                      1.000000
X_199_49                      1.000000
X_200_49                      1.000000
All other variables in the range 1-10001 are 0.
